
Gurobi 9.5.1 (linux64) logging started Wed Jun 15 03:20:15 2022

Set parameter LogFile to value "../results/logs/log_flickrEdges_20_20_2022_06_14_14_44.log"
Set parameter LazyConstraints to value 1
Gurobi Optimizer version 9.5.1 build v9.5.1rc2 (linux64)
Thread count: 8 physical cores, 8 logical processors, using up to 8 threads
Optimize a model with 11077 rows, 211876 columns and 719250 nonzeros
Model fingerprint: 0xf3cbcdeb
Variable types: 0 continuous, 211876 integer (211876 binary)
Coefficient statistics:
  Matrix range     [1e+00, 2e+01]
  Objective range  [1e+00, 1e+00]
  Bounds range     [1e+00, 1e+00]
  RHS range        [1e+00, 2e+01]
Found heuristic solution: objective 15808.000000
Presolve removed 0 rows and 116208 columns
Presolve time: 0.53s
Presolved: 11077 rows, 95668 columns, 453460 nonzeros
Variable types: 0 continuous, 95668 integer (95668 binary)
Found heuristic solution: objective 15825.000000

Deterministic concurrent LP optimizer: primal and dual simplex
Showing first log only...


Root simplex log...

Iteration    Objective       Primal Inf.    Dual Inf.      Time
    5486    1.6187696e+04   0.000000e+00   1.218317e+02      5s
    5709    1.6214162e+04   0.000000e+00   0.000000e+00      7s
Concurrent spin time: 0.03s

Solved with primal simplex

Root relaxation: objective 1.621416e+04, 5709 iterations, 6.63 seconds (10.24 work units)

    Nodes    |    Current Node    |     Objective Bounds      |     Work
 Expl Unexpl |  Obj  Depth IntInf | Incumbent    BestBd   Gap | It/Node Time

     0     0 16214.1618    0 5467 15825.0000 16214.1618  2.46%     -    9s
H    0     0                    15826.000000 16214.1618  2.45%     -    9s
H    0     0                    15827.000000 16214.1618  2.45%     -    9s
     0     0 16056.1040    0 5319 15827.0000 16056.1040  1.45%     -   42s
H    0     0                    15833.000000 16056.1040  1.41%     -   43s
     0     0 15995.8773    0 5056 15833.0000 15995.8773  1.03%     -   70s
     0     0 15930.9289    0 4662 15833.0000 15930.9289  0.62%     -   97s
     0     0 15906.1228    0 4559 15833.0000 15906.1228  0.46%     -  123s
     0     0 15898.2173    0 4646 15833.0000 15898.2173  0.41%     -  146s
     0     0 15878.9967    0 4696 15833.0000 15878.9967  0.29%     -  181s
     0     0 15877.1014    0 4689 15833.0000 15877.1014  0.28%     -  224s
     0     0 15872.2859    0 4802 15833.0000 15872.2859  0.25%     -  272s
     0     0 15871.2961    0 4801 15833.0000 15871.2961  0.24%     -  316s
     0     0 15868.3020    0 4773 15833.0000 15868.3020  0.22%     -  364s
     0     0 15867.3932    0 4774 15833.0000 15867.3932  0.22%     -  410s
     0     0 15865.5254    0 4702 15833.0000 15865.5254  0.21%     -  456s
     0     0 15864.9437    0 4580 15833.0000 15864.9437  0.20%     -  500s
     0     0 15863.6666    0 4266 15833.0000 15863.6666  0.19%     -  547s
     0     0 15863.0194    0 4099 15833.0000 15863.0194  0.19%     -  590s
     0     0 15862.4633    0 4082 15833.0000 15862.4633  0.19%     -  634s
     0     0 15862.3569    0 3948 15833.0000 15862.3569  0.19%     -  676s
     0     0 15862.3182    0 3980 15833.0000 15862.3182  0.19%     -  717s
     0     0 15862.3056    0 4038 15833.0000 15862.3056  0.19%     -  757s
     0     0 15853.1997    0 4865 15833.0000 15853.1997  0.13%     -  820s
     0     0 15851.4044    0 4981 15833.0000 15851.4044  0.12%     -  872s
     0     0 15849.7444    0 4994 15833.0000 15849.7444  0.11%     -  926s
     0     0 15848.0263    0 5137 15833.0000 15848.0263  0.09%     -  985s
     0     0 15847.1620    0 5298 15833.0000 15847.1620  0.09%     - 1040s
     0     0 15846.4240    0 5422 15833.0000 15846.4240  0.08%     - 1095s
     0     0 15845.8363    0 5546 15833.0000 15845.8363  0.08%     - 1154s
     0     0 15845.3305    0 5740 15833.0000 15845.3305  0.08%     - 1210s
     0     0 15844.5181    0 5804 15833.0000 15844.5181  0.07%     - 1266s
     0     0 15844.1772    0 5853 15833.0000 15844.1772  0.07%     - 1325s
     0     0 15842.8133    0 6183 15833.0000 15842.8133  0.06%     - 1422s
     0     0 15841.8898    0 6241 15833.0000 15841.8898  0.06%     - 1505s
     0     0 15841.1535    0 6370 15833.0000 15841.1535  0.05%     - 1580s
     0     0 15840.6479    0 6440 15833.0000 15840.6479  0.05%     - 1679s
     0     0 15839.8164    0 6544 15833.0000 15839.8164  0.04%     - 1753s
     0     0 15839.5065    0 6618 15833.0000 15839.5065  0.04%     - 1822s
     0     0 15838.8427    0 6631 15833.0000 15838.8427  0.04%     - 1962s
     0     0 15838.8401    0 6534 15833.0000 15838.8401  0.04%     - 2023s
     0     0 15838.8401    0 6534 15833.0000 15838.8401  0.04%     - 2063s
     0     2 15838.8401    0 6534 15833.0000 15838.8401  0.04%     - 2255s
     1     2 15838.0890    1 6654 15833.0000 15838.4679  0.03% 15492 2393s
     3     4 15838.0889    2 6650 15833.0000 15838.0889  0.03%  8932 2477s
     4     4 15837.5135    2 6623 15833.0000 15837.9700  0.03%  6705 2519s
     5     7 15837.9700    3 6650 15833.0000 15837.9700  0.03%  5365 2562s
     7     7 15837.6736    3 6645 15833.0000 15837.9700  0.03%  3833 2645s
     8     7 15837.4350    3 6622 15833.0000 15837.9700  0.03%  3354 2687s
     9     6 15837.5190    4 6724 15833.0000 15837.5190  0.03%  4806 3195s
    10     6 15835.1935    4 6619 15833.0000 15837.5190  0.03%  6678 3237s
    12     6 15835.1997    4 6629 15833.0000 15837.5190  0.03%  8670 3321s
    15     6     cutoff    4      15833.0000 15837.5190  0.03% 17965 3406s
    16    12 15837.5190    5 6723 15833.0000 15837.5190  0.03% 16843 3461s
    17    12 15835.1575    5 6588 15833.0000 15837.4987  0.03% 15939 3503s

Cutting planes:
  Gomory: 10
  Cover: 1699
  MIR: 1405
  StrongCG: 48
  GUB cover: 812
  Zero half: 4
  RLT: 2936
  Lazy constraints: 6

Explored 22 nodes (378444 simplex iterations) in 3674.01 seconds (2901.76 work units)
Thread count was 8 (of 8 available processors)

Solution count 5: 15833 15827 15826 ... 15808

Time limit reached
Best objective 1.583300000000e+04, best bound 1.583700000000e+04, gap 0.0253%

User-callback calls 305089, time in user-callback 2310.81 sec
